numJobs = 7;
numAgents = 24;
processingTimes = [86, 6, 85, 10, 81, 6, 87];
preferences = [|5,1,3,2,6,4,7|
4,3,1,6,7,5,2|
1,2,4,3,5,7,6|
2,7,3,1,4,6,5|
7,3,2,6,1,5,4|
1,7,3,5,4,6,2|
3,1,6,2,4,7,5|
4,2,1,5,3,6,7|
6,4,2,5,7,3,1|
7,1,5,4,6,3,2|
4,7,2,1,3,6,5|
7,6,4,5,3,2,1|
6,3,2,4,7,1,5|
5,4,1,3,6,2,7|
1,4,5,6,3,7,2|
1,2,5,6,4,3,7|
1,3,5,6,7,2,4|
1,2,7,6,3,5,4|
5,6,3,4,7,1,2|
1,4,7,3,5,6,2|
4,1,5,2,7,3,6|
3,5,7,4,6,1,2|
3,1,7,4,5,6,2|
2,7,4,5,6,1,3|];